 Entering Gaussian System
 *********************************************
 Gaussian 98:
 frequency output generated by the xtb code
 *********************************************
                         Standard orientation:
 --------------------------------------------------------------------
  Center     Atomic     Atomic              Coordinates (Angstroms)
  Number     Number      Type              X           Y           Z
 --------------------------------------------------------------------
    1          8             0        0.000000    0.000000    0.012467
    2          1             0        0.770844   -0.000003    0.581492
    3          1             0       -0.770840    0.000005    0.581498
 --------------------------------------------------------------------
     1 basis functions        1 primitive gaussians
     1 alpha electrons        1 beta electrons
 
 Harmonic frequencies (cm**-1), IR intensities (km*mol⁻¹),
 Raman scattering activities (A**4/amu), Raman depolarization ratios,
 reduced masses (AMU), force constants (mDyne/A) and normal coordinates:
                      1                      2                      3
                        a                      a                      a 
 Frequencies --  1438.1454              3675.3270              3786.9928
 Red. masses --     2.1292                 1.5642                 2.1384
 Frc consts  --     0.0000                 0.0000                 0.0000
 IR Inten    --   240.1604                47.2905                50.7093
 Raman Activ --     0.0000                 0.0000                 0.0000
 Depolar     --     0.0000                 0.0000                 0.0000
 Atom AN      X      Y      Z        X      Y      Z        X      Y      Z
   1   8    -0.00  -0.00  -0.27    -0.00  -0.00  -0.19     0.27  -0.00  -0.00
   2   1    -0.41   0.00   0.54     0.58  -0.00   0.38    -0.55   0.00  -0.40
   3   1     0.41  -0.00   0.54    -0.58   0.00   0.38    -0.55   0.00   0.40
