 Entering Gaussian System
 *********************************************
 Gaussian 98:
 frequency output generated by the xtb code
 *********************************************
                         Standard orientation:
 --------------------------------------------------------------------
  Center     Atomic     Atomic              Coordinates (Angstroms)
  Number     Number      Type              X           Y           Z
 --------------------------------------------------------------------
    1          8             0       -0.000000   -0.000000   -0.064162
    2          1             0        0.772180   -0.000003    0.504902
    3          1             0       -0.772176    0.000005    0.504908
 --------------------------------------------------------------------
     1 basis functions        1 primitive gaussians
     1 alpha electrons        1 beta electrons
 
 Harmonic frequencies (cm**-1), IR intensities (km*mol⁻¹),
 Raman scattering activities (A**4/amu), Raman depolarization ratios,
 reduced masses (AMU), force constants (mDyne/A) and normal coordinates:
                      1                      2                      3
                        a                      a                      a 
 Frequencies --  1539.5320              3642.9347              3651.0718
 Red. masses --     2.1456                 1.5478                 2.1396
 Frc consts  --     0.0000                 0.0000                 0.0000
 IR Inten    --   133.2411                 6.7594                16.6322
 Raman Activ --     0.0000                 0.0000                 0.0000
 Depolar     --     0.0000                 0.0000                 0.0000
 Atom AN      X      Y      Z        X      Y      Z        X      Y      Z
   1   8    -0.00  -0.00  -0.28    -0.00  -0.00  -0.19     0.27  -0.00  -0.00
   2   1    -0.40   0.00   0.55     0.58  -0.00   0.38    -0.55   0.00  -0.40
   3   1     0.40  -0.00   0.55    -0.58   0.00   0.38    -0.55   0.00   0.40
