 Entering Gaussian System
 *********************************************
 Gaussian 98:
 frequency output generated by the xtb code
 *********************************************
                         Standard orientation:
 --------------------------------------------------------------------
  Center     Atomic     Atomic              Coordinates (Angstroms)
  Number     Number      Type              X           Y           Z
 --------------------------------------------------------------------
    1          8             0        0.000000    0.000000    0.012584
    2          1             0        0.770923   -0.000003    0.581434
    3          1             0       -0.770918    0.000005    0.581439
 --------------------------------------------------------------------
     1 basis functions        1 primitive gaussians
     1 alpha electrons        1 beta electrons
 
 Harmonic frequencies (cm**-1), IR intensities (km*mol⁻¹),
 Raman scattering activities (A**4/amu), Raman depolarization ratios,
 reduced masses (AMU), force constants (mDyne/A) and normal coordinates:
                      1                      2                      3
                        a                      a                      a 
 Frequencies --  1437.7366              3675.7873              3787.5182
 Red. masses --     2.1295                 1.5639                 2.1387
 Frc consts  --     0.0000                 0.0000                 0.0000
 IR Inten    --   240.2341                47.3077                50.7562
 Raman Activ --     0.0000                 0.0000                 0.0000
 Depolar     --     0.0000                 0.0000                 0.0000
 Atom AN      X      Y      Z        X      Y      Z        X      Y      Z
   1   8    -0.00  -0.00  -0.27    -0.00  -0.00  -0.19     0.27  -0.00  -0.00
   2   1    -0.41   0.00   0.54     0.58  -0.00   0.38    -0.55   0.00  -0.40
   3   1     0.41  -0.00   0.54    -0.58   0.00   0.38    -0.55   0.00   0.40
